13074
0 1 0 0 0 1 0 1 0 1 0 0 1 1 0 1 0 0 1 0 
5 5 18 5 5 5 18 7 15 18 1 15 7 7 15 7 7 12 12 12 12 13 13 12 15 15 15 7 7 9 9 9 15 9 18 18 18 18 18 18 18 18 18 18 5 7 7 12 13 9 13 1 7 18 5 13 1 15 1 18 18 9 15 13 1 13 9 5 5 5 18 18 7 15 7 15 7 18 18 13 18 1 13 13 15 13 7 5 15 1 13 18 9 18 9 18 15 18 13 5 